Ni Cu 
1.0
        8.6222000122         0.0000000000         0.0000000000
        0.0000000000         9.9560604095         0.0000000000
        0.0000000000         0.0000000000        24.1935997009
   Ni   Cu   C   H
   67   13   2   3
Direct
     0.333350003         0.500000000         0.334809989    T   T   T
     0.666670024         0.500000000         0.167999998    F   F   F
     0.666670024         0.000000000         0.167999998    F   F   F
     0.166380003         0.000000000         0.417719990    T   T   T
     0.833329976         0.000000000         0.083999999    F   F   F
     0.500039995         0.000000000         0.251370013    T   T   T
     0.166380003         0.500000000         0.417719990    T   T   T
     0.833329976         0.500000000         0.083999999    T   T   T
     0.250039995         0.125000000         0.251370013    F   F   F
     0.500039995         0.500000000         0.251370013    T   T   T
     0.583329976         0.375000000         0.083999999    T   T   T
     0.583329976         0.125000000         0.083999999    F   F   F
     0.916380000         0.375000000         0.417719990    F   F   F
     0.250039995         0.375000000         0.251370013    T   T   T
     0.916379988         0.875000000         0.417719990    T   T   T
     0.583329976         0.625000000         0.083999999    T   T   T
     0.916379988         0.125000000         0.417719990    F   F   F
     0.166669995         0.000000000         0.167999998    T   T   T
     0.833350003         0.500000000         0.334809989    T   T   T
     0.583350003         0.375000000         0.334809989    F   F   F
     0.916670024         0.875000000         0.167999998    T   T   T
     0.916670024         0.625000000         0.167999998    T   T   T
     0.583350003         0.625000000         0.334809989    F   F   F
     0.166669995         0.500000000         0.167999998    F   F   F
     0.666379988         0.000000000         0.417719990    T   T   T
     0.333330005         0.500000000         0.083999999    T   T   T
     0.333330005         0.000000000         0.083999999    F   F   F
     0.000040000         0.000000000         0.251370013    T   T   T
     0.916670024         0.125000000         0.167999998    T   T   T
     0.583350003         0.875000000         0.334809989    T   T   T
     0.916670024         0.375000000         0.167999998    F   F   F
     0.250039995         0.875000000         0.251370013    F   F   F
     0.583329976         0.875000000         0.083999999    T   T   T
     0.000040000         0.750000000         0.251370013    F   F   F
     0.166669995         0.750000000         0.167999998    T   T   T
     0.083329998         0.375000000         0.083999999    F   F   F
     0.333330005         0.750000000         0.083999999    T   T   T
     0.333330005         0.250000000         0.083999999    F   F   F
     0.666379988         0.250000000         0.417719990    T   T   T
     0.083329998         0.625000000         0.083999999    T   T   T
     0.416379988         0.625000000         0.417719990    F   F   F
     0.083329998         0.875000000         0.083999999    F   F   F
     0.416379988         0.875000000         0.417719990    F   F   F
     0.750039995         0.625000000         0.251370013    T   T   T
     0.416379988         0.125000000         0.417719990    F   F   F
     0.750039995         0.125000000         0.251370013    T   T   T
     0.083329998         0.125000000         0.083999999    F   F   F
     0.000040000         0.250000000         0.251370013    T   T   T
     0.666379988         0.750000000         0.417719990    F   F   F
     0.416669995         0.125000000         0.167999998    T   T   T
     0.333350003         0.750000000         0.334809989    T   T   T
     0.666670024         0.750000000         0.167999998    T   T   T
     0.666670024         0.250000000         0.167999998    T   T   T
     0.500039995         0.250000000         0.251370013    F   F   F
     0.166380003         0.750000000         0.417719990    T   T   T
     0.833329976         0.250000000         0.083999999    T   T   T
     0.833329976         0.750000000         0.083999999    F   F   F
     0.333350003         0.250000000         0.334809989    T   T   T
     0.416669995         0.875000000         0.167999998    T   T   T
     0.833350003         0.750000000         0.334809989    F   F   F
     0.166669995         0.250000000         0.167999998    F   F   F
     0.083350003         0.125000000         0.334809989    T   T   T
     0.416669995         0.625000000         0.167999998    T   T   T
     0.083350003         0.375000000         0.334809989    F   F   F
     0.083350003         0.625000000         0.334809989    F   F   F
     0.416669995         0.375000000         0.167999998    T   T   T
     0.750039995         0.375000000         0.251370013    F   F   F
     0.333350000         0.000000000         0.334809989    T   T   T
     0.250040000         0.625000000         0.251370013    F   F   F
     0.583350003         0.125000000         0.334809989    T   T   T
     0.833350000         0.000000000         0.334809989    F   F   F
     0.000040000         0.500000000         0.251370013    T   T   T
     0.833350000         0.250000000         0.334809989    T   T   T
     0.750040000         0.875000000         0.251370013    F   F   F
     0.500040000         0.750000000         0.251370013    T   T   T
     0.083350000         0.875000000         0.334809989    T   T   T
     0.916379988         0.625000000         0.417719990    T   T   T
     0.666379988         0.500000000         0.417719990    T   T   T
     0.166380003         0.250000000         0.417719990    T   T   T
     0.416379988         0.375000000         0.417719990    T   T   T
     0.657328312         0.623181782         0.535125872    T	T   T	
     0.587513621         0.625400776         0.477538644    T   T   T
     0.631100290         0.717730823         0.557049523    T   T   T 
     0.607652617         0.540328549         0.559716913    T   T   T
     0.783840570         0.610826808         0.534008209    T   T   T
